\* Problem: Unknown *\

Maximize
 obj: + xp_0_0 + xp_0_1 + xp_0_2 + xp_0_3 + xp_0_4 + xp_0_5 + xp_0_6
 + xp_0_7 + xp_1_0 + xp_1_1 + xp_2_0 + xp_2_1 + xp_2_2 + xp_2_3 + xp_2_4
 + xp_3_0 + xp_3_1 + xp_3_2 + xp_4_0 + xp_4_1 + xp_5_0 + xp_5_1 + xp_6_0
 + xp_6_1 + xp_6_2 + xp_6_3 + xp_6_4 + xp_6_5 + xp_7_0 + xp_7_1 + xp_8_0
 + xp_8_1 + xp_9_0 + xp_10_0 + xp_11_0 + xp_11_1 + xp_11_2 + xp_11_3
 + xp_11_4 + xp_12_0 + xp_13_0 + xp_13_1 + xp_14_0 + xp_14_1 + xp_15_0
 + xp_16_0 + xp_17_0 + xp_17_1 + xp_17_2 + xp_17_3 + xp_17_4 + xp_18_0
 + xp_18_1 + xp_18_2 + xp_18_3 + xp_18_4 + xp_18_5 + xp_19_0 + xp_19_1
 + xp_19_2 + xp_19_3 + xp_19_4 + xp_19_5 + xp_20_0 + xp_20_1 + xp_20_2
 + xp_20_3 + xp_21_0 + xp_21_1 + xp_21_2 + xp_21_3 + xp_21_4 + xp_22_0
 + xp_22_1 + xp_22_2 + xp_22_3 + xp_22_4 + xp_22_5 + xp_23_0 + xp_23_1
 + xp_23_2 + xp_23_3

Subject To
 r_1: 0 xp_0_0 <= 29.0077821011673
 r_2: + xp_22_3 + xp_18_1 + xp_17_4 + xp_6_5 + xp_2_2
 <= 28.6290322580645
 r_3: + xp_21_3 + xp_19_5 + xp_18_5 + xp_18_2 + xp_6_4 <= 30
 r_4: + xp_18_3 + xp_17_3 + xp_15_0 <= 30
 r_5: + xp_18_0 <= 27.5681198910082
 r_6: + xp_19_3 + xp_18_4 <= 30
 r_7: + xp_20_3 <= 29.0077821011673
 r_8: + xp_22_2 + xp_11_3 + xp_6_1 + xp_5_1 + xp_3_2 + xp_2_1
 <= 28.6290322580645
 r_9: + xp_11_1 + xp_6_2 + xp_3_1 <= 30
 r_10: + xp_11_4 + xp_3_0 <= 30
 r_11: + xp_18_5 + xp_18_4 + xp_11_2 <= 27.5681198910082
 r_12: + xp_11_0 <= 30
 r_13: 0 xp_0_0 <= 30
 r_14: + xp_21_4 + xp_14_0 + xp_4_1 + xp_0_5 + xp_0_1
 <= 28.6290322580645
 r_15: + xp_21_0 + xp_19_4 <= 29.0077821011673
 r_16: + xp_22_1 + xp_21_2 + xp_0_6 + xp_0_3 + xp_0_2
 <= 29.0077821011673
 r_17: + xp_0_0 <= 27.5681198910082
 r_18: + xp_21_3 + xp_19_5 + xp_19_3 + xp_4_0 <= 29.0077821011673
 r_19: + xp_19_0 <= 29.0077821011673
 r_20: + xp_21_1 + xp_19_2 + xp_19_1 + xp_14_1 + xp_0_7 + xp_0_4
 <= 29.0077821011673
 r_21: + xp_20_1 <= 28.6290322580645
 r_22: + xp_21_4 + xp_7_1 <= 28.6290322580645
 r_23: + xp_23_2 + xp_22_5 + xp_22_3 + xp_22_2 <= 28.6290322580645
 r_24: + xp_17_4 + xp_6_5 + xp_6_1 + xp_3_2 + xp_0_7 + xp_0_5
 <= 28.6290322580645
 r_25: 0 xp_0_0 <= 28.6290322580645
 r_26: + xp_18_1 + xp_0_4 + xp_0_1 <= 27.5681198910082
 r_27: + xp_11_3 + xp_4_1 <= 28.6290322580645
 r_28: + xp_19_1 <= 28.6290322580645
 r_29: + xp_20_2 <= 29.0077821011673
 r_30: + xp_2_0 <= 28.6290322580645
 r_31: + xp_18_2 + xp_6_4 + xp_6_2 + xp_3_1 + xp_2_4 <= 30
 r_32: + xp_2_3 <= 30
 r_33: + xp_11_1 + xp_2_2 <= 30
 r_34: + xp_19_5 + xp_19_4 + xp_18_5 + xp_2_1 <= 30
 r_35: 0 xp_0_0 <= 29.0077821011673
 r_36: + xp_9_0 <= 28.6290322580645
 r_37: + xp_21_2 + xp_13_1 + xp_8_1 + xp_6_3 + xp_0_3 <= 30
 r_38: + xp_23_3 + xp_23_2 + xp_1_1 <= 30
 r_39: + xp_17_1 + xp_0_6 <= 30
 r_40: + xp_0_2 <= 27.5681198910082
 r_41: + xp_12_0 + xp_2_4 <= 28.6290322580645
 r_42: + xp_21_2 <= 30
 r_43: + xp_16_0 <= 30
 r_44: + xp_23_1 <= 30
 r_45: + xp_17_4 + xp_3_2 + xp_3_1 <= 30
 r_46: + xp_18_2 + xp_0_7 + xp_0_5 + xp_0_3 <= 27.5681198910082
 r_47: + xp_22_4 + xp_13_1 <= 30
 r_48: + xp_13_0 <= 30
 r_49: + xp_17_2 <= 30
 r_50: 0 xp_0_0 <= 27.5681198910082
 r_51: + xp_8_1 + xp_1_1 <= 30
 r_52: + xp_8_0 <= 30
 r_53: + xp_1_0 <= 30
 r_54: + xp_18_3 + xp_0_6 <= 27.5681198910082
 r_55: + xp_11_4 <= 30
 r_56: 0 xp_0_0 <= 30
 r_57: + xp_22_1 <= 27.5681198910082
 r_58: + xp_23_2 + xp_22_5 + xp_5_0 <= 27.5681198910082
 r_59: + xp_23_3 + xp_22_0 + xp_17_1 + xp_6_3 <= 27.5681198910082
 r_60: + xp_23_1 + xp_6_0 <= 27.5681198910082
 r_61: + xp_23_0 + xp_22_4 + xp_17_2 <= 27.5681198910082
 r_62: + xp_17_0 <= 27.5681198910082
 r_63: + xp_22_3 + xp_17_4 + xp_17_3 + xp_11_2 + xp_6_5 + xp_6_4
 <= 27.5681198910082
 r_64: + xp_22_2 + xp_6_2 + xp_6_1 + xp_5_1 <= 27.5681198910082
 r_65: + xp_20_1 + xp_19_1 + xp_14_1 + xp_7_1 + xp_2_3 + xp_0_7 + xp_0_4
 <= 28.6290322580645
 r_66: + xp_21_1 + xp_20_2 + xp_7_0 <= 30
 r_67: + xp_20_3 + xp_19_2 + xp_10_0 <= 30
 r_68: + xp_20_0 <= 29.0077821011673

Bounds
 0 <= xp_0_0 <= 27.5711842245599
 0 <= xp_0_1 <= 8.647671566207
 0 <= xp_0_2 <= 10.7028397846362
 0 <= xp_0_3 <= 2.9626352442989
 0 <= xp_0_4 <= 3.87010227016863
 0 <= xp_0_5 <= 2.9626352442989
 0 <= xp_0_6 <= 3.87010227016863
 0 <= xp_0_7 <= 0.907467025869731
 0 <= xp_1_0 <= 21.2277555470407
 0 <= xp_1_1 <= 13.2028358344558
 0 <= xp_2_0 <= 22.3576572270524
 0 <= xp_2_1 <= 1.6192105169601
 0 <= xp_2_2 <= 8.35408626403795
 0 <= xp_2_3 <= 0.80960525848005
 0 <= xp_2_4 <= 0.80960525848005
 0 <= xp_3_0 <= 20.4893187123992
 0 <= xp_3_1 <= 10.5160100808602
 0 <= xp_3_2 <= 0.542701449321162
 0 <= xp_4_0 <= 22.7757917148918
 0 <= xp_4_1 <= 2.84697396436147
 0 <= xp_5_0 <= 22.7757917148918
 0 <= xp_5_1 <= 2.84697396436147
 0 <= xp_6_0 <= 7.68682970377598
 0 <= xp_6_1 <= 5.12455313585065
 0 <= xp_6_2 <= 2.56227656792533
 0 <= xp_6_3 <= 2.56227656792533
 0 <= xp_6_4 <= 2.56227656792533
 0 <= xp_6_5 <= 2.56227656792533
 0 <= xp_7_0 <= 14.7330902655706
 0 <= xp_7_1 <= 7.36654513278531
 0 <= xp_8_0 <= 17.6512385790411
 0 <= xp_8_1 <= 2.20640482238014
 0 <= xp_9_0 <= 18.4163628319633
 0 <= xp_10_0 <= 18.4163628319633
 0 <= xp_11_0 <= 26.6637171986901
 0 <= xp_11_1 <= 8.68324689022054
 0 <= xp_11_2 <= 7.0284610492469
 0 <= xp_11_3 <= 9.9910962935458
 0 <= xp_11_4 <= 5.92527048859781
 0 <= xp_12_0 <= 17.295366833496
 0 <= xp_13_0 <= 14.9466133128977
 0 <= xp_13_1 <= 1.86832666411222
 0 <= xp_14_0 <= 12.4555110940814
 0 <= xp_14_1 <= 3.55871745545184
 0 <= xp_15_0 <= 15.854086264038
 0 <= xp_16_0 <= 15.2135171220566
 0 <= xp_17_0 <= 26.6903927664298
 0 <= xp_17_1 <= 5.95194605633747
 0 <= xp_17_2 <= 6.93059928185722
 0 <= xp_17_3 <= 2.9626352442989
 0 <= xp_17_4 <= 1.98398201877916
 0 <= xp_18_0 <= 21.8950121073027
 0 <= xp_18_1 <= 1.77045897145205
 0 <= xp_18_2 <= 2.9626352442989
 0 <= xp_18_3 <= 1.77045897145205
 0 <= xp_18_4 <= 11.2366474029539
 0 <= xp_18_5 <= 2.9626352442989
 0 <= xp_19_0 <= 28.3807954083104
 0 <= xp_19_1 <= 3.43415641924054
 0 <= xp_19_2 <= 3.43415641924054
 0 <= xp_19_3 <= 1.71707820962027
 0 <= xp_19_4 <= 3.43415641924054
 0 <= xp_19_5 <= 1.71707820962027
 0 <= xp_20_0 <= 26.9573025008592
 0 <= xp_20_1 <= 4.59074551753288
 0 <= xp_20_2 <= 6.51244109293589
 0 <= xp_20_3 <= 3.25622054646795
 0 <= xp_21_0 <= 26.5658435807595
 0 <= xp_21_1 <= 4.29714243955237
 0 <= xp_21_2 <= 5.82739687066715
 0 <= xp_21_3 <= 1.43238081318412
 0 <= xp_21_4 <= 1.43238081318412
 0 <= xp_22_0 <= 16.8683207388417
 0 <= xp_22_1 <= 4.21708018471043
 0 <= xp_22_2 <= 4.21708018471043
 0 <= xp_22_3 <= 5.92527048859781
 0 <= xp_22_4 <= 3.76333482123459
 0 <= xp_22_5 <= 2.9626352442989
 0 <= xp_23_0 <= 15.1601304349544
 0 <= xp_23_1 <= 20.2847013466165
 0 <= xp_23_2 <= 1.25444494041153
 0 <= xp_23_3 <= 1.25444494041153

End
